NAME: test1856
TYPE: TSP
DIMENSION: 11
EDGE_WEIGHT_TYPE: EUC_2D
NODE_COORD_SECTION
1 96.90891026742293 46.05949945095335
2 68.08373631121836 43.33722719165879
3 95.87489472556435 96.36500441569721
4 45.92479701976345 27.329729830813587
5 60.30519706656736 24.7530721213749
6 19.336200980368933 41.15738105414649
7 49.15290735292589 50.57484343354567
8 37.071642296655874 47.71811086015818
9 87.73441534023168 83.07152011234425
10 60.69439667308868 57.87213389528048
11 93.69432209043431 65.7131080556414
EOF
